(set-info :source |printed by MathSAT|)
(declare-fun call_moesi.ite32.next () Int)
(declare-fun call_moesi.exclusive_mo.next () Int)
(declare-fun call_moesi.ite33.next () Int)
(declare-fun call_moesi.ite3 () Int)
(declare-fun call_moesi.ite17 () Int)
(declare-fun call_moesi.ite29 () Int)
(declare-fun call_moesi.ite25.next () Int)
(declare-fun call_moesi.ite11.next () Int)
(declare-fun call_moesi.garde_mo4.next () Bool)
(declare-fun call_moesi.flby4 () Int)
(declare-fun call_moesi.ite5.next () Int)
(declare-fun call_moesi.ite22.next () Int)
(declare-fun call_moesi.ite6 () Int)
(declare-fun call_moesi.flby5.next () Int)
(declare-fun shared_mo () Int)
(declare-fun call_moesi.ite32 () Int)
(declare-fun call_moesi.flby2.next () Int)
(declare-fun call_moesi.ite27.next () Int)
(declare-fun call_moesi.ite16 () Int)
(declare-fun call_Sofar.Sofar () Bool)
(declare-fun call_moesi.owned_mo () Int)
(declare-fun call_moesi.flby6 () Int)
(declare-fun call_moesi.ite () Int)
(declare-fun call_moesi.invalid_mo.next () Int)
(declare-fun call_moesi.modified_mo () Int)
(declare-fun call_moesi.ite27 () Int)
(declare-fun call_moesi.ite29.next () Int)
(declare-fun call_moesi.ite7 () Int)
(declare-fun shared_mo.next () Int)
(declare-fun _OK_ () Bool)
(declare-fun call_moesi.ite20 () Int)
(declare-fun call_excludes4.excludes () Bool)
(declare-fun param_etat_mo1.next () Bool)
(declare-fun call_moesi.ite22 () Int)
(declare-fun call_moesi.ite34 () Int)
(declare-fun call_moesi.ite19.next () Int)
(declare-fun call_moesi.ite11 () Int)
(declare-fun call_moesi.ite17.next () Int)
(declare-fun param_etat_mo4.next () Bool)
(declare-fun call_moesi.ite34.next () Int)
(declare-fun call_moesi.ite13 () Int)
(declare-fun call_moesi.ite16.next () Int)
(declare-fun env.next () Bool)
(declare-fun erreur_mo () Bool)
(declare-fun param_etat_mo2 () Bool)
(declare-fun call_moesi.ite9 () Int)
(declare-fun call_moesi.ite14 () Int)
(declare-fun call_moesi.ite9.next () Int)
(declare-fun call_moesi.invalid_mo () Int)
(declare-fun call_moesi.ite6.next () Int)
(declare-fun invalid_mo.next () Int)
(declare-fun call_moesi.ite23 () Int)
(declare-fun call_moesi.ite30.next () Int)
(declare-fun param_etat_mo3.next () Bool)
(declare-fun call_moesi.ite10.next () Int)
(declare-fun call_moesi.ite24.next () Int)
(declare-fun call_moesi.ite21.next () Int)
(declare-fun call_moesi.flby.next () Bool)
(declare-fun call_moesi.ite8 () Int)
(declare-fun env () Bool)
(declare-fun call_Sofar.flby.next () Bool)
(declare-fun call_moesi.shared_mo.next () Int)
(declare-fun modified_mo.next () Int)
(declare-fun call_moesi.ite12.next () Int)
(declare-fun call_moesi.flby () Bool)
(declare-fun call_moesi.ite18.next () Int)
(declare-fun call_moesi.ite28.next () Int)
(declare-fun owned_mo.next () Int)
(declare-fun call_moesi.ite3.next () Int)
(declare-fun exclusive_mo.next () Int)
(declare-fun owned_mo () Int)
(declare-fun erreur_mo.next () Bool)
(declare-fun call_moesi.ite10 () Int)
(declare-fun call_moesi.garde_mo2.next () Bool)
(declare-fun _OK_.next () Bool)
(declare-fun call_moesi.ite26 () Int)
(declare-fun call_moesi.ite24 () Int)
(declare-fun param_etat_mo3 () Bool)
(declare-fun flby.next () Bool)
(declare-fun call_moesi.erreur_mo () Bool)
(declare-fun flby () Bool)
(declare-fun call_moesi.ite28 () Int)
(declare-fun call_moesi.ite2.next () Int)
(declare-fun call_moesi.shared_mo () Int)
(declare-fun call_moesi.ite26.next () Int)
(declare-fun param_etat_mo4 () Bool)
(declare-fun call_moesi.owned_mo.next () Int)
(declare-fun call_excludes4.excludes.next () Bool)
(declare-fun call_moesi.flby3 () Int)
(declare-fun call_moesi.ite14.next () Int)
(declare-fun call_moesi.ite30 () Int)
(declare-fun call_moesi.ite2 () Int)
(declare-fun call_moesi.ite15 () Int)
(declare-fun call_moesi.flby4.next () Int)
(declare-fun call_moesi.flby5 () Int)
(declare-fun call_moesi.ite20.next () Int)
(declare-fun param_etat_mo2.next () Bool)
(declare-fun call_moesi.erreur_mo.next () Bool)
(declare-fun exclusive_mo () Int)
(declare-fun call_moesi.modified_mo.next () Int)
(declare-fun modified_mo () Int)
(declare-fun call_moesi.ite7.next () Int)
(declare-fun call_moesi.ite4.next () Int)
(declare-fun param_etat_mo1 () Bool)
(declare-fun call_moesi.ite23.next () Int)
(declare-fun call_moesi.ite.next () Int)
(declare-fun call_moesi.ite5 () Int)
(declare-fun call_Sofar.flby () Bool)
(declare-fun call_moesi.ite21 () Int)
(declare-fun call_moesi.ite33 () Int)
(declare-fun invalid_mo () Int)
(declare-fun call_moesi.ite31.next () Int)
(declare-fun call_moesi.ite18 () Int)
(declare-fun call_moesi.flby6.next () Int)
(declare-fun call_moesi.ite8.next () Int)
(declare-fun call_moesi.flby2 () Int)
(declare-fun call_moesi.ite13.next () Int)
(declare-fun call_moesi.flby3.next () Int)
(declare-fun call_moesi.ite15.next () Int)
(declare-fun call_Sofar.Sofar.next () Bool)
(declare-fun call_moesi.garde_mo3.next () Bool)
(declare-fun call_moesi.garde_mo1.next () Bool)
(declare-fun call_moesi.exclusive_mo () Int)
(define-fun .def_1345 () Bool (= call_Sofar.flby.next call_Sofar.Sofar.next))
(define-fun .def_1340 () Bool (and param_etat_mo4.next param_etat_mo3.next))
(define-fun .def_1338 () Bool (and param_etat_mo4.next param_etat_mo2.next))
(define-fun .def_1336 () Bool (and param_etat_mo2.next param_etat_mo3.next))
(define-fun .def_1334 () Bool (and param_etat_mo4.next param_etat_mo1.next))
(define-fun .def_1332 () Bool (and param_etat_mo1.next param_etat_mo3.next))
(define-fun .def_1331 () Bool (and param_etat_mo2.next param_etat_mo1.next))
(define-fun .def_1333 () Bool (or .def_1331 .def_1332))
(define-fun .def_1335 () Bool (or .def_1333 .def_1334))
(define-fun .def_1337 () Bool (or .def_1335 .def_1336))
(define-fun .def_1339 () Bool (or .def_1337 .def_1338))
(define-fun .def_1341 () Bool (or .def_1339 .def_1340))
(define-fun .def_1342 () Bool (not .def_1341))
(define-fun .def_1343 () Bool (= call_excludes4.excludes.next .def_1342))
(define-fun .def_1329 () Bool (= call_moesi.flby.next call_moesi.erreur_mo.next))
(define-fun .def_1327 () Bool (= call_moesi.flby6.next call_moesi.owned_mo.next))
(define-fun .def_1325 () Bool (= call_moesi.flby5.next call_moesi.invalid_mo.next))
(define-fun .def_1323 () Bool (= call_moesi.flby4.next call_moesi.shared_mo.next))
(define-fun .def_1321 () Bool (= call_moesi.exclusive_mo.next call_moesi.flby3.next))
(define-fun .def_1319 () Bool (= call_moesi.flby2.next call_moesi.modified_mo.next))
(define-fun .def_1317 () Bool (= env.next call_Sofar.Sofar.next))
(define-fun .def_1314 () Bool (= erreur_mo.next call_moesi.erreur_mo.next))
(define-fun .def_1310 () Bool (= owned_mo.next call_moesi.owned_mo.next))
(define-fun .def_1307 () Bool (= invalid_mo.next call_moesi.invalid_mo.next))
(define-fun .def_1304 () Bool (= shared_mo.next call_moesi.shared_mo.next))
(define-fun .def_1301 () Bool (= exclusive_mo.next call_moesi.exclusive_mo.next))
(define-fun .def_1299 () Bool (= modified_mo.next call_moesi.modified_mo.next))
(define-fun .def_1294 () Bool (not env.next))
(define-fun .def_1295 () Bool (or flby.next .def_1294))
(define-fun .def_1296 () Bool (= _OK_.next .def_1295))
(define-fun .def_1288 () Bool (= call_moesi.ite32.next call_moesi.ite33.next))
(define-fun .def_1289 () Bool (or param_etat_mo3.next .def_1288))
(define-fun .def_1285 () Bool (= call_moesi.ite30.next call_moesi.ite33.next))
(define-fun .def_1264 () Bool (not param_etat_mo3.next))
(define-fun .def_1286 () Bool (or .def_1264 .def_1285))
(define-fun .def_1282 () Bool (= call_moesi.ite26.next call_moesi.ite27.next))
(define-fun .def_1283 () Bool (or param_etat_mo3.next .def_1282))
(define-fun .def_1279 () Bool (= call_moesi.ite24.next call_moesi.ite27.next))
(define-fun .def_1280 () Bool (or .def_1264 .def_1279))
(define-fun .def_1276 () Bool (= call_moesi.ite20.next call_moesi.ite21.next))
(define-fun .def_1277 () Bool (or param_etat_mo3.next .def_1276))
(define-fun .def_1273 () Bool (= call_moesi.ite18.next call_moesi.ite21.next))
(define-fun .def_1274 () Bool (or .def_1264 .def_1273))
(define-fun .def_1270 () Bool (= call_moesi.ite13.next call_moesi.ite14.next))
(define-fun .def_1271 () Bool (or param_etat_mo3.next .def_1270))
(define-fun .def_1267 () Bool (= call_moesi.ite11.next call_moesi.ite14.next))
(define-fun .def_1268 () Bool (or .def_1264 .def_1267))
(define-fun .def_1263 () Bool (= call_moesi.ite3.next call_moesi.ite6.next))
(define-fun .def_1265 () Bool (or .def_1263 .def_1264))
(define-fun .def_1260 () Bool (= call_moesi.ite5.next call_moesi.ite6.next))
(define-fun .def_1262 () Bool (or .def_1260 param_etat_mo3.next))
(define-fun .def_1266 () Bool (and .def_1262 .def_1265))
(define-fun .def_1269 () Bool (and .def_1266 .def_1268))
(define-fun .def_1272 () Bool (and .def_1269 .def_1271))
(define-fun .def_1275 () Bool (and .def_1272 .def_1274))
(define-fun .def_1278 () Bool (and .def_1275 .def_1277))
(define-fun .def_1281 () Bool (and .def_1278 .def_1280))
(define-fun .def_1284 () Bool (and .def_1281 .def_1283))
(define-fun .def_1287 () Bool (and .def_1284 .def_1286))
(define-fun .def_1290 () Bool (and .def_1287 .def_1289))
(define-fun .def_1256 () Bool (= call_moesi.ite34.next call_moesi.ite33.next))
(define-fun .def_1257 () Bool (or param_etat_mo1.next .def_1256))
(define-fun .def_1252 () Bool (= call_moesi.ite29.next call_moesi.ite34.next))
(define-fun .def_1229 () Bool (not param_etat_mo1.next))
(define-fun .def_1253 () Bool (or .def_1229 .def_1252))
(define-fun .def_1249 () Bool (= call_moesi.ite28.next call_moesi.ite27.next))
(define-fun .def_1250 () Bool (or param_etat_mo1.next .def_1249))
(define-fun .def_1245 () Bool (= call_moesi.ite23.next call_moesi.ite28.next))
(define-fun .def_1246 () Bool (or .def_1229 .def_1245))
(define-fun .def_1242 () Bool (= call_moesi.ite22.next call_moesi.ite21.next))
(define-fun .def_1243 () Bool (or param_etat_mo1.next .def_1242))
(define-fun .def_1238 () Bool (= call_moesi.ite17.next call_moesi.ite22.next))
(define-fun .def_1239 () Bool (or .def_1229 .def_1238))
(define-fun .def_1235 () Bool (= call_moesi.ite16.next call_moesi.ite15.next))
(define-fun .def_1236 () Bool (or param_etat_mo1.next .def_1235))
(define-fun .def_1232 () Bool (= call_moesi.ite9.next call_moesi.ite16.next))
(define-fun .def_1233 () Bool (or .def_1229 .def_1232))
(define-fun .def_1228 () Bool (= call_moesi.ite.next call_moesi.ite8.next))
(define-fun .def_1230 () Bool (or .def_1228 .def_1229))
(define-fun .def_1225 () Bool (= call_moesi.ite8.next call_moesi.ite7.next))
(define-fun .def_1227 () Bool (or .def_1225 param_etat_mo1.next))
(define-fun .def_1231 () Bool (and .def_1227 .def_1230))
(define-fun .def_1234 () Bool (and .def_1231 .def_1233))
(define-fun .def_1237 () Bool (and .def_1234 .def_1236))
(define-fun .def_1240 () Bool (and .def_1237 .def_1239))
(define-fun .def_1244 () Bool (and .def_1240 .def_1243))
(define-fun .def_1247 () Bool (and .def_1244 .def_1246))
(define-fun .def_1251 () Bool (and .def_1247 .def_1250))
(define-fun .def_1254 () Bool (and .def_1251 .def_1253))
(define-fun .def_1258 () Bool (and .def_1254 .def_1257))
(define-fun .def_1222 () Bool (= call_moesi.ite15.next call_moesi.ite14.next))
(define-fun .def_1223 () Bool (or param_etat_mo2.next .def_1222))
(define-fun .def_1218 () Bool (= call_moesi.ite10.next call_moesi.ite15.next))
(define-fun .def_1214 () Bool (not param_etat_mo2.next))
(define-fun .def_1219 () Bool (or .def_1214 .def_1218))
(define-fun .def_1213 () Bool (= call_moesi.ite2.next call_moesi.ite7.next))
(define-fun .def_1215 () Bool (or .def_1213 .def_1214))
(define-fun .def_1210 () Bool (= call_moesi.ite7.next call_moesi.ite6.next))
(define-fun .def_1212 () Bool (or .def_1210 param_etat_mo2.next))
(define-fun .def_1216 () Bool (and .def_1212 .def_1215))
(define-fun .def_1220 () Bool (and .def_1216 .def_1219))
(define-fun .def_1224 () Bool (and .def_1220 .def_1223))
(define-fun .def_1259 () Bool (and .def_1224 .def_1258))
(define-fun .def_1291 () Bool (and .def_1259 .def_1290))
(define-fun .def_1297 () Bool (and .def_1291 .def_1296))
(define-fun .def_1300 () Bool (and .def_1297 .def_1299))
(define-fun .def_1302 () Bool (and .def_1300 .def_1301))
(define-fun .def_1305 () Bool (and .def_1302 .def_1304))
(define-fun .def_1308 () Bool (and .def_1305 .def_1307))
(define-fun .def_1311 () Bool (and .def_1308 .def_1310))
(define-fun .def_1315 () Bool (and .def_1311 .def_1314))
(define-fun .def_1318 () Bool (and .def_1315 .def_1317))
(define-fun .def_1320 () Bool (and .def_1318 .def_1319))
(define-fun .def_1322 () Bool (and .def_1320 .def_1321))
(define-fun .def_1324 () Bool (and .def_1322 .def_1323))
(define-fun .def_1326 () Bool (and .def_1324 .def_1325))
(define-fun .def_1328 () Bool (and .def_1326 .def_1327))
(define-fun .def_1330 () Bool (and .def_1328 .def_1329))
(define-fun .def_1344 () Bool (and .def_1330 .def_1343))
(define-fun .def_1346 () Bool (and .def_1344 .def_1345))
(define-fun .def_928 () Bool (= call_Sofar.flby call_Sofar.Sofar))
(define-fun .def_923 () Bool (and param_etat_mo4 param_etat_mo3))
(define-fun .def_921 () Bool (and param_etat_mo4 param_etat_mo2))
(define-fun .def_919 () Bool (and param_etat_mo2 param_etat_mo3))
(define-fun .def_917 () Bool (and param_etat_mo4 param_etat_mo1))
(define-fun .def_915 () Bool (and param_etat_mo1 param_etat_mo3))
(define-fun .def_914 () Bool (and param_etat_mo2 param_etat_mo1))
(define-fun .def_916 () Bool (or .def_914 .def_915))
(define-fun .def_918 () Bool (or .def_916 .def_917))
(define-fun .def_920 () Bool (or .def_918 .def_919))
(define-fun .def_922 () Bool (or .def_920 .def_921))
(define-fun .def_924 () Bool (or .def_922 .def_923))
(define-fun .def_925 () Bool (not .def_924))
(define-fun .def_926 () Bool (= call_excludes4.excludes .def_925))
(define-fun .def_912 () Bool (= call_moesi.flby call_moesi.erreur_mo))
(define-fun .def_910 () Bool (= call_moesi.flby6 call_moesi.owned_mo))
(define-fun .def_908 () Bool (= call_moesi.flby5 call_moesi.invalid_mo))
(define-fun .def_906 () Bool (= call_moesi.flby4 call_moesi.shared_mo))
(define-fun .def_904 () Bool (= call_moesi.flby3 call_moesi.exclusive_mo))
(define-fun .def_902 () Bool (= call_moesi.flby2 call_moesi.modified_mo))
(define-fun .def_900 () Bool (= env call_Sofar.Sofar))
(define-fun .def_897 () Bool (= erreur_mo call_moesi.erreur_mo))
(define-fun .def_893 () Bool (= owned_mo call_moesi.owned_mo))
(define-fun .def_889 () Bool (= invalid_mo call_moesi.invalid_mo))
(define-fun .def_885 () Bool (= shared_mo call_moesi.shared_mo))
(define-fun .def_881 () Bool (= exclusive_mo call_moesi.exclusive_mo))
(define-fun .def_877 () Bool (= modified_mo call_moesi.modified_mo))
(define-fun .def_871 () Bool (not env))
(define-fun .def_872 () Bool (or flby .def_871))
(define-fun .def_873 () Bool (= _OK_ .def_872))
(define-fun .def_865 () Bool (= call_moesi.ite32 call_moesi.ite33))
(define-fun .def_866 () Bool (or param_etat_mo3 .def_865))
(define-fun .def_862 () Bool (= call_moesi.ite30 call_moesi.ite33))
(define-fun .def_840 () Bool (not param_etat_mo3))
(define-fun .def_863 () Bool (or .def_840 .def_862))
(define-fun .def_859 () Bool (= call_moesi.ite26 call_moesi.ite27))
(define-fun .def_860 () Bool (or param_etat_mo3 .def_859))
(define-fun .def_856 () Bool (= call_moesi.ite27 call_moesi.ite24))
(define-fun .def_857 () Bool (or .def_840 .def_856))
(define-fun .def_852 () Bool (= call_moesi.ite20 call_moesi.ite21))
(define-fun .def_853 () Bool (or param_etat_mo3 .def_852))
(define-fun .def_849 () Bool (= call_moesi.ite18 call_moesi.ite21))
(define-fun .def_850 () Bool (or .def_840 .def_849))
(define-fun .def_846 () Bool (= call_moesi.ite13 call_moesi.ite14))
(define-fun .def_847 () Bool (or param_etat_mo3 .def_846))
(define-fun .def_843 () Bool (= call_moesi.ite11 call_moesi.ite14))
(define-fun .def_844 () Bool (or .def_840 .def_843))
(define-fun .def_839 () Bool (= call_moesi.ite3 call_moesi.ite6))
(define-fun .def_841 () Bool (or .def_839 .def_840))
(define-fun .def_836 () Bool (= call_moesi.ite5 call_moesi.ite6))
(define-fun .def_838 () Bool (or .def_836 param_etat_mo3))
(define-fun .def_842 () Bool (and .def_838 .def_841))
(define-fun .def_845 () Bool (and .def_842 .def_844))
(define-fun .def_848 () Bool (and .def_845 .def_847))
(define-fun .def_851 () Bool (and .def_848 .def_850))
(define-fun .def_854 () Bool (and .def_851 .def_853))
(define-fun .def_858 () Bool (and .def_854 .def_857))
(define-fun .def_861 () Bool (and .def_858 .def_860))
(define-fun .def_864 () Bool (and .def_861 .def_863))
(define-fun .def_867 () Bool (and .def_864 .def_866))
(define-fun .def_832 () Bool (= call_moesi.ite34 call_moesi.ite33))
(define-fun .def_833 () Bool (or param_etat_mo1 .def_832))
(define-fun .def_828 () Bool (= call_moesi.ite29 call_moesi.ite34))
(define-fun .def_798 () Bool (not param_etat_mo1))
(define-fun .def_829 () Bool (or .def_798 .def_828))
(define-fun .def_823 () Bool (= call_moesi.ite28 call_moesi.ite27))
(define-fun .def_824 () Bool (or param_etat_mo1 .def_823))
(define-fun .def_819 () Bool (= call_moesi.ite23 call_moesi.ite28))
(define-fun .def_820 () Bool (or .def_798 .def_819))
(define-fun .def_814 () Bool (= call_moesi.ite22 call_moesi.ite21))
(define-fun .def_815 () Bool (or param_etat_mo1 .def_814))
(define-fun .def_810 () Bool (= call_moesi.ite17 call_moesi.ite22))
(define-fun .def_811 () Bool (or .def_798 .def_810))
(define-fun .def_805 () Bool (= call_moesi.ite15 call_moesi.ite16))
(define-fun .def_806 () Bool (or param_etat_mo1 .def_805))
(define-fun .def_802 () Bool (= call_moesi.ite9 call_moesi.ite16))
(define-fun .def_803 () Bool (or .def_798 .def_802))
(define-fun .def_797 () Bool (= call_moesi.ite call_moesi.ite8))
(define-fun .def_799 () Bool (or .def_797 .def_798))
(define-fun .def_794 () Bool (= call_moesi.ite7 call_moesi.ite8))
(define-fun .def_796 () Bool (or .def_794 param_etat_mo1))
(define-fun .def_800 () Bool (and .def_796 .def_799))
(define-fun .def_804 () Bool (and .def_800 .def_803))
(define-fun .def_807 () Bool (and .def_804 .def_806))
(define-fun .def_812 () Bool (and .def_807 .def_811))
(define-fun .def_816 () Bool (and .def_812 .def_815))
(define-fun .def_821 () Bool (and .def_816 .def_820))
(define-fun .def_825 () Bool (and .def_821 .def_824))
(define-fun .def_830 () Bool (and .def_825 .def_829))
(define-fun .def_834 () Bool (and .def_830 .def_833))
(define-fun .def_790 () Bool (= call_moesi.ite15 call_moesi.ite14))
(define-fun .def_791 () Bool (or param_etat_mo2 .def_790))
(define-fun .def_786 () Bool (= call_moesi.ite10 call_moesi.ite15))
(define-fun .def_781 () Bool (not param_etat_mo2))
(define-fun .def_787 () Bool (or .def_781 .def_786))
(define-fun .def_780 () Bool (= call_moesi.ite7 call_moesi.ite2))
(define-fun .def_782 () Bool (or .def_780 .def_781))
(define-fun .def_776 () Bool (= call_moesi.ite7 call_moesi.ite6))
(define-fun .def_778 () Bool (or .def_776 param_etat_mo2))
(define-fun .def_783 () Bool (and .def_778 .def_782))
(define-fun .def_788 () Bool (and .def_783 .def_787))
(define-fun .def_792 () Bool (and .def_788 .def_791))
(define-fun .def_835 () Bool (and .def_792 .def_834))
(define-fun .def_868 () Bool (and .def_835 .def_867))
(define-fun .def_874 () Bool (and .def_868 .def_873))
(define-fun .def_878 () Bool (and .def_874 .def_877))
(define-fun .def_882 () Bool (and .def_878 .def_881))
(define-fun .def_886 () Bool (and .def_882 .def_885))
(define-fun .def_890 () Bool (and .def_886 .def_889))
(define-fun .def_894 () Bool (and .def_890 .def_893))
(define-fun .def_898 () Bool (and .def_894 .def_897))
(define-fun .def_901 () Bool (and .def_898 .def_900))
(define-fun .def_903 () Bool (and .def_901 .def_902))
(define-fun .def_905 () Bool (and .def_903 .def_904))
(define-fun .def_907 () Bool (and .def_905 .def_906))
(define-fun .def_909 () Bool (and .def_907 .def_908))
(define-fun .def_911 () Bool (and .def_909 .def_910))
(define-fun .def_913 () Bool (and .def_911 .def_912))
(define-fun .def_927 () Bool (and .def_913 .def_926))
(define-fun .def_929 () Bool (and .def_927 .def_928))
(define-fun .def_1347 () Bool (and .def_929 .def_1346))
(define-fun .def_1204 () Bool (and call_Sofar.Sofar call_excludes4.excludes.next))
(define-fun .def_1206 () Bool (= .def_1204 call_Sofar.flby.next))
(define-fun .def_1201 () Bool (= call_moesi.ite34.next call_moesi.flby6.next))
(define-fun .def_1197 () Bool (= call_moesi.ite28.next call_moesi.flby5.next))
(define-fun .def_1193 () Bool (= call_moesi.ite22.next call_moesi.flby4.next))
(define-fun .def_1189 () Bool (= call_moesi.ite16.next call_moesi.flby3.next))
(define-fun .def_1185 () Bool (= call_moesi.ite8.next call_moesi.flby2.next))
(define-fun .def_1179 () Bool (<= 2 call_moesi.exclusive_mo.next))
(define-fun .def_1181 () Bool (= .def_1179 call_moesi.flby.next))
(define-fun .def_1141 () Bool (<= 1 call_moesi.invalid_mo))
(define-fun .def_1175 () Bool (= call_moesi.garde_mo4.next .def_1141))
(define-fun .def_1172 () Bool (= call_moesi.ite31.next 0))
(define-fun .def_1056 () Bool (not call_moesi.garde_mo4.next))
(define-fun .def_1173 () Bool (or .def_1056 .def_1172))
(define-fun .def_1169 () Bool (= call_moesi.ite19.next 0))
(define-fun .def_1170 () Bool (or .def_1056 .def_1169))
(define-fun .def_1166 () Bool (= call_moesi.ite4.next 0))
(define-fun .def_1167 () Bool (or .def_1056 .def_1166))
(define-fun .def_1164 () Bool (= call_moesi.ite12.next 1))
(define-fun .def_1165 () Bool (or .def_1056 .def_1164))
(define-fun .def_1168 () Bool (and .def_1165 .def_1167))
(define-fun .def_1171 () Bool (and .def_1168 .def_1170))
(define-fun .def_1174 () Bool (and .def_1171 .def_1173))
(define-fun .def_1176 () Bool (and .def_1174 .def_1175))
(define-fun .def_1159 () Int (+ call_moesi.shared_mo call_moesi.owned_mo))
(define-fun .def_1160 () Bool (<= 0 .def_1159))
(define-fun .def_1161 () Bool (= call_moesi.garde_mo3.next .def_1160))
(define-fun .def_1156 () Bool (= call_moesi.ite30.next 0))
(define-fun .def_1041 () Bool (not call_moesi.garde_mo3.next))
(define-fun .def_1157 () Bool (or .def_1041 .def_1156))
(define-fun .def_1153 () Bool (= call_moesi.ite18.next 0))
(define-fun .def_1154 () Bool (or .def_1041 .def_1153))
(define-fun .def_1150 () Bool (= call_moesi.ite3.next 0))
(define-fun .def_1151 () Bool (or .def_1041 .def_1150))
(define-fun .def_1148 () Bool (= call_moesi.ite11.next 1))
(define-fun .def_1149 () Bool (or .def_1041 .def_1148))
(define-fun .def_1152 () Bool (and .def_1149 .def_1151))
(define-fun .def_1155 () Bool (and .def_1152 .def_1154))
(define-fun .def_1158 () Bool (and .def_1155 .def_1157))
(define-fun .def_1162 () Bool (and .def_1158 .def_1161))
(define-fun .def_1145 () Bool (<= 1 call_moesi.exclusive_mo))
(define-fun .def_1146 () Bool (= call_moesi.garde_mo2.next .def_1145))
(define-fun .def_1142 () Bool (= call_moesi.garde_mo1.next .def_1141))
(define-fun .def_1138 () Bool (= call_moesi.ite.next 0))
(define-fun .def_1066 () Bool (not call_moesi.garde_mo1.next))
(define-fun .def_1139 () Bool (or .def_1066 .def_1138))
(define-fun .def_1136 () Bool (= call_moesi.ite9.next 0))
(define-fun .def_1137 () Bool (or .def_1066 .def_1136))
(define-fun .def_1140 () Bool (and .def_1137 .def_1139))
(define-fun .def_1143 () Bool (and .def_1140 .def_1142))
(define-fun .def_1132 () Bool (= call_moesi.owned_mo call_moesi.ite31.next))
(define-fun .def_1133 () Bool (or call_moesi.garde_mo4.next .def_1132))
(define-fun .def_1129 () Bool (= call_moesi.owned_mo call_moesi.ite29.next))
(define-fun .def_1130 () Bool (or call_moesi.garde_mo1.next .def_1129))
(define-fun .def_1127 () Bool (= call_moesi.owned_mo call_moesi.ite30.next))
(define-fun .def_1128 () Bool (or call_moesi.garde_mo3.next .def_1127))
(define-fun .def_1131 () Bool (and .def_1128 .def_1130))
(define-fun .def_1134 () Bool (and .def_1131 .def_1133))
(define-fun .def_1122 () Bool (= call_moesi.invalid_mo call_moesi.ite25.next))
(define-fun .def_1123 () Bool (or call_moesi.garde_mo4.next .def_1122))
(define-fun .def_1119 () Bool (= call_moesi.invalid_mo call_moesi.ite24.next))
(define-fun .def_1120 () Bool (or call_moesi.garde_mo3.next .def_1119))
(define-fun .def_1114 () Int (* (- 1) call_moesi.ite23.next))
(define-fun .def_1115 () Int (+ call_moesi.invalid_mo .def_1114))
(define-fun .def_1116 () Bool (= .def_1115 1))
(define-fun .def_1117 () Bool (or .def_1066 .def_1116))
(define-fun .def_1112 () Bool (= call_moesi.invalid_mo call_moesi.ite23.next))
(define-fun .def_1113 () Bool (or call_moesi.garde_mo1.next .def_1112))
(define-fun .def_1118 () Bool (and .def_1113 .def_1117))
(define-fun .def_1121 () Bool (and .def_1118 .def_1120))
(define-fun .def_1124 () Bool (and .def_1121 .def_1123))
(define-fun .def_1107 () Bool (= call_moesi.shared_mo call_moesi.ite19.next))
(define-fun .def_1108 () Bool (or call_moesi.garde_mo4.next .def_1107))
(define-fun .def_1104 () Bool (= call_moesi.shared_mo call_moesi.ite17.next))
(define-fun .def_1105 () Bool (or call_moesi.garde_mo1.next .def_1104))
(define-fun .def_1102 () Bool (= call_moesi.shared_mo call_moesi.ite18.next))
(define-fun .def_1103 () Bool (or call_moesi.garde_mo3.next .def_1102))
(define-fun .def_1106 () Bool (and .def_1103 .def_1105))
(define-fun .def_1109 () Bool (and .def_1106 .def_1108))
(define-fun .def_1094 () Int (* (- 1) call_moesi.shared_mo))
(define-fun .def_1095 () Int (+ .def_1094 call_moesi.ite17.next))
(define-fun .def_1096 () Int (+ call_moesi.exclusive_mo .def_1095))
(define-fun .def_1097 () Bool (= .def_1096 1))
(define-fun .def_1098 () Bool (or .def_1066 .def_1097))
(define-fun .def_1086 () Bool (= call_moesi.exclusive_mo call_moesi.ite12.next))
(define-fun .def_1087 () Bool (or call_moesi.garde_mo4.next .def_1086))
(define-fun .def_1083 () Bool (= call_moesi.exclusive_mo call_moesi.ite11.next))
(define-fun .def_1084 () Bool (or call_moesi.garde_mo3.next .def_1083))
(define-fun .def_1079 () Bool (= call_moesi.exclusive_mo call_moesi.ite10.next))
(define-fun .def_1080 () Bool (or call_moesi.garde_mo2.next .def_1079))
(define-fun .def_1076 () Bool (= call_moesi.exclusive_mo call_moesi.ite9.next))
(define-fun .def_1077 () Bool (or call_moesi.garde_mo1.next .def_1076))
(define-fun .def_1071 () Int (* (- 1) call_moesi.ite10.next))
(define-fun .def_1072 () Int (+ call_moesi.exclusive_mo .def_1071))
(define-fun .def_1073 () Bool (= .def_1072 1))
(define-fun .def_1009 () Bool (not call_moesi.garde_mo2.next))
(define-fun .def_1074 () Bool (or .def_1009 .def_1073))
(define-fun .def_1078 () Bool (and .def_1074 .def_1077))
(define-fun .def_1081 () Bool (and .def_1078 .def_1080))
(define-fun .def_1085 () Bool (and .def_1081 .def_1084))
(define-fun .def_1088 () Bool (and .def_1085 .def_1087))
(define-fun .def_1099 () Bool (and .def_1088 .def_1098))
(define-fun .def_1060 () Int (* (- 1) call_moesi.ite29.next))
(define-fun .def_1063 () Int (+ call_moesi.owned_mo .def_1060))
(define-fun .def_1064 () Int (+ call_moesi.modified_mo .def_1063))
(define-fun .def_1065 () Bool (= .def_1064 0))
(define-fun .def_1067 () Bool (or .def_1065 .def_1066))
(define-fun .def_1044 () Int (* (- 1) call_moesi.ite25.next))
(define-fun .def_1050 () Int (+ call_moesi.owned_mo .def_1044))
(define-fun .def_1051 () Int (+ call_moesi.invalid_mo .def_1050))
(define-fun .def_1052 () Int (+ call_moesi.shared_mo .def_1051))
(define-fun .def_1053 () Int (+ call_moesi.exclusive_mo .def_1052))
(define-fun .def_1054 () Int (+ call_moesi.modified_mo .def_1053))
(define-fun .def_1055 () Bool (= .def_1054 1))
(define-fun .def_1057 () Bool (or .def_1055 .def_1056))
(define-fun .def_1029 () Int (* (- 1) call_moesi.ite24.next))
(define-fun .def_1035 () Int (+ call_moesi.owned_mo .def_1029))
(define-fun .def_1036 () Int (+ call_moesi.invalid_mo .def_1035))
(define-fun .def_1037 () Int (+ call_moesi.shared_mo .def_1036))
(define-fun .def_1038 () Int (+ call_moesi.exclusive_mo .def_1037))
(define-fun .def_1039 () Int (+ call_moesi.modified_mo .def_1038))
(define-fun .def_1040 () Bool (= .def_1039 1))
(define-fun .def_1042 () Bool (or .def_1040 .def_1041))
(define-fun .def_1024 () Bool (= call_moesi.modified_mo call_moesi.ite4.next))
(define-fun .def_1026 () Bool (or .def_1024 call_moesi.garde_mo4.next))
(define-fun .def_1020 () Bool (= call_moesi.modified_mo call_moesi.ite3.next))
(define-fun .def_1022 () Bool (or .def_1020 call_moesi.garde_mo3.next))
(define-fun .def_1016 () Bool (= call_moesi.modified_mo call_moesi.ite2.next))
(define-fun .def_1017 () Bool (or call_moesi.garde_mo2.next .def_1016))
(define-fun .def_1012 () Bool (= call_moesi.modified_mo call_moesi.ite.next))
(define-fun .def_1014 () Bool (or .def_1012 call_moesi.garde_mo1.next))
(define-fun .def_1005 () Int (* (- 1) call_moesi.ite2.next))
(define-fun .def_1006 () Int (+ call_moesi.modified_mo .def_1005))
(define-fun .def_1007 () Bool (= .def_1006 (- 1)))
(define-fun .def_1010 () Bool (or .def_1007 .def_1009))
(define-fun .def_1015 () Bool (and .def_1010 .def_1014))
(define-fun .def_1018 () Bool (and .def_1015 .def_1017))
(define-fun .def_1023 () Bool (and .def_1018 .def_1022))
(define-fun .def_1027 () Bool (and .def_1023 .def_1026))
(define-fun .def_1043 () Bool (and .def_1027 .def_1042))
(define-fun .def_1058 () Bool (and .def_1043 .def_1057))
(define-fun .def_1068 () Bool (and .def_1058 .def_1067))
(define-fun .def_1000 () Bool (= call_moesi.owned_mo call_moesi.ite32.next))
(define-fun .def_1001 () Bool (or param_etat_mo4.next .def_1000))
(define-fun .def_997 () Bool (= call_moesi.ite31.next call_moesi.ite32.next))
(define-fun .def_968 () Bool (not param_etat_mo4.next))
(define-fun .def_998 () Bool (or .def_968 .def_997))
(define-fun .def_992 () Bool (= call_moesi.invalid_mo call_moesi.ite26.next))
(define-fun .def_993 () Bool (or param_etat_mo4.next .def_992))
(define-fun .def_989 () Bool (= call_moesi.ite25.next call_moesi.ite26.next))
(define-fun .def_990 () Bool (or .def_968 .def_989))
(define-fun .def_984 () Bool (= call_moesi.shared_mo call_moesi.ite20.next))
(define-fun .def_985 () Bool (or param_etat_mo4.next .def_984))
(define-fun .def_981 () Bool (= call_moesi.ite19.next call_moesi.ite20.next))
(define-fun .def_982 () Bool (or .def_968 .def_981))
(define-fun .def_976 () Bool (= call_moesi.exclusive_mo call_moesi.ite13.next))
(define-fun .def_977 () Bool (or param_etat_mo4.next .def_976))
(define-fun .def_973 () Bool (= call_moesi.ite12.next call_moesi.ite13.next))
(define-fun .def_974 () Bool (or .def_968 .def_973))
(define-fun .def_967 () Bool (= call_moesi.ite5.next call_moesi.ite4.next))
(define-fun .def_969 () Bool (or .def_967 .def_968))
(define-fun .def_963 () Bool (= call_moesi.modified_mo call_moesi.ite5.next))
(define-fun .def_965 () Bool (or .def_963 param_etat_mo4.next))
(define-fun .def_970 () Bool (and .def_965 .def_969))
(define-fun .def_975 () Bool (and .def_970 .def_974))
(define-fun .def_978 () Bool (and .def_975 .def_977))
(define-fun .def_983 () Bool (and .def_978 .def_982))
(define-fun .def_986 () Bool (and .def_983 .def_985))
(define-fun .def_991 () Bool (and .def_986 .def_990))
(define-fun .def_994 () Bool (and .def_991 .def_993))
(define-fun .def_999 () Bool (and .def_994 .def_998))
(define-fun .def_1002 () Bool (and .def_999 .def_1001))
(define-fun .def_943 () Int (* (- 1) owned_mo.next))
(define-fun .def_940 () Int (* (- 1) invalid_mo.next))
(define-fun .def_950 () Int (+ .def_940 .def_943))
(define-fun .def_937 () Int (* (- 1) shared_mo.next))
(define-fun .def_951 () Int (+ .def_937 .def_950))
(define-fun .def_934 () Int (* (- 1) exclusive_mo.next))
(define-fun .def_952 () Int (+ .def_934 .def_951))
(define-fun .def_932 () Int (* (- 1) modified_mo.next))
(define-fun .def_953 () Int (+ .def_932 .def_952))
(define-fun .def_954 () Int (+ owned_mo .def_953))
(define-fun .def_955 () Int (+ invalid_mo .def_954))
(define-fun .def_956 () Int (+ shared_mo .def_955))
(define-fun .def_957 () Int (+ exclusive_mo .def_956))
(define-fun .def_958 () Int (+ modified_mo .def_957))
(define-fun .def_959 () Bool (= .def_958 0))
(define-fun .def_961 () Bool (= .def_959 flby.next))
(define-fun .def_1003 () Bool (and .def_961 .def_1002))
(define-fun .def_1069 () Bool (and .def_1003 .def_1068))
(define-fun .def_1100 () Bool (and .def_1069 .def_1099))
(define-fun .def_1110 () Bool (and .def_1100 .def_1109))
(define-fun .def_1125 () Bool (and .def_1110 .def_1124))
(define-fun .def_1135 () Bool (and .def_1125 .def_1134))
(define-fun .def_1144 () Bool (and .def_1135 .def_1143))
(define-fun .def_1147 () Bool (and .def_1144 .def_1146))
(define-fun .def_1163 () Bool (and .def_1147 .def_1162))
(define-fun .def_1177 () Bool (and .def_1163 .def_1176))
(define-fun .def_1182 () Bool (and .def_1177 .def_1181))
(define-fun .def_1186 () Bool (and .def_1182 .def_1185))
(define-fun .def_1190 () Bool (and .def_1186 .def_1189))
(define-fun .def_1194 () Bool (and .def_1190 .def_1193))
(define-fun .def_1198 () Bool (and .def_1194 .def_1197))
(define-fun .def_1202 () Bool (and .def_1198 .def_1201))
(define-fun .def_1207 () Bool (and .def_1202 .def_1206))
(define-fun .def_1348 () Bool (and .def_1207 .def_1347))
(assert .def_1348)
